c 
c MolecularSimulation 0.9.3
c Simulation written: Jan 13 2012 -- 15:17:57
c Test: Distribution
c Input: ./data/testCNF/SWEEP_R2_K3_N20_M36_S002.cnf
c 
s SATISFIABLE
v 1 2 3 -4 5 6 10 11 -12 13 14 15 16 -17 -18 0
c algorithmTime:  856
c solutionMemory: 131526
c mixCount:       105
c extractCount:   0
c appendCount:    16385263
c splitCount:     105
c spliceCount:    7700888
c purifyCount:    35
c 
